n = 80;
capacity = 100;
size = [80, 79, 78, 78, 76, 75, 73, 72, 72, 71, 70, 69, 69, 68, 68, 67, 66, 66, 65, 64, 64, 61, 61, 60, 60, 60, 60, 58, 58, 57, 57, 56, 53, 53, 53, 51, 51, 51, 51, 51, 50, 48, 48, 47, 46, 46, 45, 44, 44, 43, 41, 40, 37, 35, 35, 35, 34, 33, 33, 32, 32, 31, 31, 31, 31, 30, 29, 29, 28, 28, 27, 26, 25, 24, 23, 22, 22, 20, 20, 20];
